
%FILE DATA:	Soccer Computational Problem for MiniZinc Models	%
%AUTHOR:	Jack Wall	%
%CONTACT:  	116397063@umail.ucc.ie			%
%LAST UPDATE:	03/03/2020, 16:09:05						%
%DESCRIPTION: 	54 games played with 18 games left				%


n=9; %number of teams

%Games to play
games=[|8,2|3,5|5,2|7,4|1,9|1,5|7,1|4,9|9,6|7,5|3,7|1,4|2,4|4,8|2,8|8,5|7,3|2,7|];

%Initial points
iPoints=[14,19,22,8,10,29,9,10,25];

%POSITION CONSTRAINTS
% [|teamID, operator, position|...]
% operators index:
%  1 for =  operator
%  2 for >  operator
%  3 for >= operator
%  4 for <  operator
%  5 for <= operator
positionConstraints=[|9,1,1|6,5,2|3,5,3|];